
%FILE DATA:	Soccer Computational Problem for MiniZinc Models	%
%AUTHOR:	Jack Wall	%
%CONTACT:  	116397063@umail.ucc.ie			%
%LAST UPDATE:	03/03/2020, 12:08:00						%
%DESCRIPTION: 	18 games played with 12 games left				%


n=6; %number of teams

%Games to play
games=[|6,4|5,3|5,4|1,4|2,6|2,1|1,3|1,6|5,2|3,2|5,1|4,5|];

%Initial points
iPoints=[7,7,6,9,9,10];

%POSITION CONSTRAINTS
% [|teamID, operator, position|...]
% operators index:
%  1 for =  operator
%  2 for >  operator
%  3 for >= operator
%  4 for <  operator
%  5 for <= operator
positionConstraints=[|1,3,1|4,4,3|5,5,3|2,5,4|];